% From Gecode's examples/domino.cc
% Example 3
r = 7;
c = 8;
high = 6;
board = array2d(1..r, 1..c, 
    [
      3,0,2,3,3,4,4,3,
      6,5,3,4,2,0,2,1,
      6,5,1,2,3,0,2,0,
      4,5,4,1,6,6,2,5,
      4,3,6,1,0,4,5,5,
      1,3,2,5,6,0,0,1,
      0,5,4,6,2,1,6,1
    ])
;
